! Solving for graph /home/truongxuanhieu/Gurobi-for-MinSpanLabeling/benchmarks/abp/Q-494_bus.mtx.rnd
! Target value is set to 113
! Lower bound is set to 114
! Upper bound is set to 247
! Time limit is set to 1800
! Vertices mode is set to No hole
Set parameter WLSAccessID
Set parameter WLSSecret
Set parameter LicenseID to value 2663665
Academic license 2663665 - for non-commercial use only - registered to tu___@vnu.edu.vn
Set parameter OutputFlag to value 1
Set parameter TimeLimit to value 1800
Gurobi Optimizer version 13.0.2 build v13.0.2rc1 (linux64 - "Debian GNU/Linux 12 (bookworm)")

CPU model: AMD EPYC 7B12, instruction set [SSE2|AVX|AVX2]
Thread count: 4 physical cores, 8 logical processors, using up to 8 threads

Non-default parameters:
TimeLimit  1800

Academic license 2663665 - for non-commercial use only - registered to tu___@vnu.edu.vn
Optimize a model with 2902 rows, 123685 columns and 370128 nonzeros (Min)
Model fingerprint: 0x287831ec
Model has 1 linear objective coefficients
Model has 586 simple general constraints
  586 ABS
Variable types: 0 continuous, 123685 integer (122018 binary)
Coefficient statistics:
  Matrix range     [1e+00, 2e+02]
  Objective range  [1e+00, 1e+00]
  Bounds range     [1e+00, 2e+02]
  RHS range        [1e+00, 2e+02]

Presolve added 1025 rows and 813 columns
Presolve time: 1.09s
Presolved: 3927 rows, 124498 columns, 372982 nonzeros
Variable types: 0 continuous, 124498 integer (122391 binary)
Deterministic concurrent LP optimizer: primal and dual simplex
Showing primal log only...

Concurrent spin time: 0.00s

Solved with dual simplex

Root relaxation: objective 1.140000e+02, 2014 iterations, 0.33 seconds (0.29 work units)

    Nodes    |    Current Node    |     Objective Bounds      |     Work
 Expl Unexpl |  Obj  Depth IntInf | Incumbent    BestBd   Gap | It/Node Time

     0     0  114.00000    0  651          -  114.00000      -     -    2s
     0     0  114.00000    0  691          -  114.00000      -     -    2s
     0     0  114.00000    0 1479          -  114.00000      -     -    5s
     0     0  114.00000    0 1472          -  114.00000      -     -    5s
     0     0  114.00000    0 1523          -  114.00000      -     -    6s
     0     0  114.00000    0 1510          -  114.00000      -     -    6s
     0     0  114.00000    0 1860          -  114.00000      -     -    7s
     0     0  114.00000    0 1820          -  114.00000      -     -    7s
     0     0  114.00000    0  657          -  114.00000      -     -   10s
     0     0  114.00000    0  981          -  114.00000      -     -   12s
     0     0  114.00000    0  993          -  114.00000      -     -   12s
     0     0  114.00000    0  973          -  114.00000      -     -   12s
     0     0  114.00000    0 1488          -  114.00000      -     -   13s
     0     0  114.00000    0 1439          -  114.00000      -     -   13s
     0     0  114.00000    0  720          -  114.00000      -     -   16s
     0     0  114.00000    0  833          -  114.00000      -     -   17s
     0     0  114.00000    0  606          -  114.00000      -     -   22s
     0     2  114.00000    0  588          -  114.00000      -     -   28s
    11    25  114.00000    4 1294          -  114.00000      -   674   34s
    24    45  114.00000    5 1265          -  114.00000      -   917   35s
   287   336  227.00000   38 1427          -  114.00000      -   136   40s
   787   557  227.00000   37 1468          -  114.00000      -  75.1   46s
  1206   667  227.00000  141 1454          -  114.00000      -  58.4   51s
  1496   743  227.00000  158 1301          -  114.00000      -  50.9   55s
  1655   801  227.00000  202 1178          -  114.00000      -  50.8   60s
  1764   836  227.00000  208 1128          -  114.00000      -  49.4   66s
  1825   886  227.00000  232 1114          -  114.00000      -  49.8   76s
  1918   946  227.00000  295 1091          -  114.00000      -  49.3   87s
  2157  1151  227.00000  348 1059          -  114.00000      -  45.7   91s
  2418  1200  227.00000  145  606          -  114.00000      -  46.5  101s
  2420  1201  227.00000   19  656          -  114.00000      -  46.5  106s
  2421  1202  114.00000   55  735          -  114.00000      -  46.5  110s
  2423  1203  227.00000  485  773          -  114.00000      -  46.4  116s
  2425  1205  227.00000   93  710          -  114.00000      -  46.4  123s
  2427  1206  114.00000   60  764          -  114.00000      -  46.3  129s
  2428  1207  227.00000   93 1093          -  114.00000      -  46.3  130s
  2430  1208  227.00000  206 1137          -  114.00000      -  46.3  136s
  2432  1209  227.00000  117  578          -  114.00000      -  46.2  144s
  2433  1210  246.00000  231  578          -  114.00000      -  46.2  149s
  2434  1214  114.00000   12  602          -  114.00000      -   142  163s
  2436  1217  114.00000   13  648          -  114.00000      -   142  176s
  2505  1291  114.00000   22  698          -  114.00000      -   147  180s
  2677  1355  114.00000   35  644          -  114.00000      -   154  185s
  2853  1359  114.00000   43  674          -  114.00000      -   157  190s
  3002  1398  114.00000   51  672          -  114.00000      -   160  195s
  3225  1401  114.00000   57  685          -  114.00000      -   157  200s
  3400  1381  227.00000   65 1479          -  114.00000      -   154  205s
  3517  1394  227.00000   72 1445          -  114.00000      -   153  219s
  3521  1396  245.00000   72 1468          -  114.00000      -   154  236s
  3525  1398  227.00000   73 1465          -  114.00000      -   155  256s
  3529  1398  227.00000   74 1433          -  114.00000      -   156  269s
  3534  1398  227.00000   75 1395          -  114.00000      -   157  282s
  3590  1483  227.00000   79 1406          -  114.00000      -   157  285s
  3867  1462  227.00000  121 1380          -  114.00000      -   150  290s
  4342  1505  227.00000  166 1226          -  114.00000      -   140  296s
  4626  1436  227.00000  175 1196          -  114.00000      -   133  305s
  4740  1400  227.00000  176 1100          -  114.00000      -   131  324s
  4744  1403  227.00000  176 1189          -  114.00000      -   134  343s
  4748  1404  227.00000  177 1083          -  114.00000      -   136  368s
  4752  1407  227.00000  178 1067          -  114.00000      -   139  372s
  4756  1410  227.00000  179 1075          -  114.00000      -   140  380s
  4819  1400  227.00000  237 1129          -  114.00000      -   138  395s
  4887  1381  227.00000  298  995          -  114.00000      -   138  431s
  4891  1426  227.00000  299  995          -  114.00000      -   139  451s
  4941  1413  227.00000  323  891          -  114.00000      -   139  498s
  4945  1457  227.00000  324  874          -  114.00000      -   140  511s
  4990  1446  227.00000  345  904          -  114.00000      -   140  536s
  4994  1587  227.00000  345  919          -  114.00000      -   140  552s
  5185  1583  227.00000  374  897          -  114.00000      -   137  557s
  5469  1601  227.00000  460  867          -  114.00000      -   131  561s
  5821  1566  114.00000   38  651          -  114.00000      -   126  568s
  6048  1492  227.00000   70 1349          -  114.00000      -   125  574s
  6052  1589  247.00000   70 1353          -  114.00000      -   127  577s
  6349  1652  227.00000  152 1345          -  114.00000      -   123  580s
  6541  1656  227.00000  200 1373          -  114.00000      -   122  591s
  6545  1730  245.00000  200 1600          -  114.00000      -   126  595s
  6953  1814  227.00000  273 1298          -  114.00000      -   123  623s
  6957  1847  227.00000  274 1298          -  114.00000      -   130  630s
  7010  1851  227.00000  294 1252          -  114.00000      -   130  650s
  7014  1853  227.00000  294 1353          -  114.00000      -   134  685s
  7019  1924  227.00000  295 1251          -  114.00000      -   139  700s
  7120  1926  227.00000  355 1160          -  114.00000      -   139  728s
  7125  1972  227.00000  356 1190          -  114.00000      -   140  745s
  7234  1975  227.00000  433 1018          -  114.00000      -   140  770s
  7238  1979  227.00000  434  956          -  114.00000      -   141  794s
  7242  2087  227.00000  435  962          -  114.00000      -   142  799s
  7378  2089  227.00000  479  849          -  114.00000      -   142  826s
  7382  2191  227.00000  479  960          -  114.00000      -   148  831s
  7626  2267  227.00000  588  859          -  114.00000      -   146  837s
  7802  2271  227.00000  686  883          -  114.00000      -   147  873s
  7806  2346  227.00000  687  846          -  114.00000      -   159  878s
  7921  2340  227.00000  721  774          -  114.00000      -   163  904s
  7937  2429  227.00000  721  817          -  114.00000      -   167  909s
  8046  2433  227.00000  744  699          -  114.00000      -   174  950s
  8051  2435  227.00000  745  585          -  114.00000      -   190 1004s
  8055  2437  227.00000  746  578          -  114.00000      -   209 1039s
  8059  2447  246.00000  746  684          -  114.00000      -   223 1049s
  8072  2561  227.00000  747  578          -  114.00000      -   225 1059s
  8197  2561 infeasible  764               -  114.00000      -   235 1087s
  8203  2562  227.00000  765  482          -  114.00000      -   262 1123s
  8208  2563  227.00000  766  516          -  114.00000      -   291 1155s
  8215  2613  227.00000  766  460          -  114.00000      -   298 1303s
  8276  2609  227.00000  783  414          -  114.00000      -   357 1359s
  8284  2609  227.00000  783  490          -  114.00000      -   373 1417s
  8290  2613  227.00000  784  415          -  114.00000      -   393 1441s
  8294  2617  227.00000  784  420          -  114.00000      -   396 1465s
  8298  2623  227.00000  785  482          -  114.00000      -   405 1492s
  8304  2634  227.00000  785  422          -  114.00000      -   406 1511s
  8315  2638  227.00000  786  414          -  114.00000      -   410 1543s
  8321  2644  227.00000  786  425          -  114.00000      -   411 1567s
  8327  2648  227.00000  787  417          -  114.00000      -   415 1590s
  8331  2652  227.00000  787  430          -  114.00000      -   417 1639s
  8335  2657  227.00000  788  419          -  114.00000      -   418 1669s
  8341  2666  227.00000  788  438          -  114.00000      -   419 1699s
  8350  2670  227.00000  789  408          -  114.00000      -   420 1734s
  8354  2679  227.00000  789  554          -  114.00000      -   423 1765s
  8363  2686  227.00000  790  398          -  114.00000      -   423 1793s
  8370  2691  227.00000   83  965          -  114.00000      -   424 1800s

Cutting planes:
  Gomory: 18
  Cover: 22
  Implied bound: 143
  Projected implied bound: 2
  Clique: 11
  MIR: 181
  StrongCG: 111
  Flow cover: 313
  GUB cover: 45
  Zero half: 45
  Network: 3
  RLT: 4
  Relax-and-lift: 313

Explored 8375 nodes (3666535 simplex iterations) in 1800.02 seconds (3887.78 work units)
Thread count was 8 (of 8 available processors)

Solution count 0

Time limit reached
Best objective -, best bound 1.140000000000e+02, gap -
! --------------------------------------------------------
! No feasible solution
! --------------------------------------------------------
